p cnf 41 112
a 28 23 0
e 1 2 3 4 5 6 7 8 9 10 11 12 13 14 15 16 17 18 19 20 21 22 24 25 26 27 29 30 31 32 33 34 35 36 37 38 39 40 41 0
4 2 0
4 3 0
-2 -3 -4 0
5 -1 0
5 4 0
1 -4 -5 0
6 7 -8 0
-6 -7 -8 0
6 -7 8 0
-6 7 8 0
10 8 0
10 -9 0
-8 9 -10 0
10 -8 -11 0
-10 8 -11 0
10 8 11 0
-10 -8 11 0
-12 -5 0
-12 11 0
5 -11 12 0
14 -3 0
14 -13 0
3 13 -14 0
15 -12 0
15 14 0
12 -14 -15 0
-16 9 0
-16 -9 0
17 4 0
17 16 0
-4 -16 -17 0
-18 15 0
-18 -17 0
-15 17 18 0
21 -19 0
21 -20 0
19 20 -21 0
-22 -6 0
-22 -21 0
6 21 22 0
-23 -22 0
-23 -2 0
22 2 23 0
-3 -21 -24 0
3 21 -24 0
-3 21 24 0
3 -21 24 0
-2 16 -25 0
2 -16 -25 0
-2 -16 25 0
2 16 25 0
26 -24 0
26 25 0
24 -25 -26 0
-27 8 0
-27 -21 0
-8 21 27 0
-16 9 -28 0
16 -9 -28 0
-16 -9 28 0
16 9 28 0
29 -27 0
29 -28 0
27 28 -29 0
30 20 0
30 -8 0
-20 8 -30 0
-32 -30 0
-32 31 0
30 -31 32 0
33 -25 0
33 32 0
25 -32 -33 0
34 -25 0
34 -21 0
25 21 -34 0
35 -33 0
35 34 0
33 -34 -35 0
-29 35 -36 0
29 -35 -36 0
-29 -35 36 0
29 35 36 0
37 26 0
37 36 0
-26 -36 -37 0
23 37 -38 0
-23 -37 -38 0
23 -37 38 0
-23 37 38 0
-39 -6 0
-39 22 0
6 -22 39 0
-38 39 -40 0
38 -39 -40 0
-38 -39 40 0
38 39 40 0
18 40 -41 0
-18 -40 -41 0
18 -40 41 0
-18 40 41 0
-24 -19 14 -11 0
-38 -3 -2 -37 -16 25 -23 0
23 -29 18 -19 30 24 34 32 0
-12 -21 33 35 0
-26 -25 -15 31 -27 28 -10 -18 0
37 25 -15 8 24 0
10 -13 -26 9 -33 -15 24 0
-8 -7 36 17 -2 -24 39 0
-2 -37 -22 -38 8 16 0
21 15 37 -19 35 7 -10 33 0
41 0
